STP File, STP Format Version 1.0

SECTION Comments
Name "prepro"
Creator "morete"
Problem "Prize-Collecting Steiner Problem in Graphs"
END

SECTION Graph
Nodes 4
Edges 4
E 1 2 500
E 1 3 1
E 2 4 1
E 3 4 1
END

SECTION Terminals
Terminals 4
TP 1 1000
TP 2 1000
TP 3 1000
TP 4 1000
END

EOF
